************************************************************************
file with basedata            : J12043_.BAS
initial value random generator: 198636216
************************************************************************
projects                      :  1
jobs (incl. supersource/sink ):  122
horizon                       :  651
RESOURCES
  - renewable                 :  4   R
  - nonrenewable              :  0   N
  - doubly constrained        :  0   D
************************************************************************
PROJECT INFORMATION:
pronr.  #jobs rel.date duedate tardcost  MPM-Time
    1    120      0      115      118      115
************************************************************************
PRECEDENCE RELATIONS:
jobnr.    #modes  #successors   successors
   1        1          3           2   3   4
   2        1          3           5   8  10
   3        1          3           9  44  68
   4        1          3           7  11  14
   5        1          3           6  42  49
   6        1          3           9  13  50
   7        1          3          25  31  47
   8        1          3          17  35  37
   9        1          3          12  18  24
  10        1          3          15  16  30
  11        1          3          19  27  46
  12        1          2          33 114
  13        1          3          51  58  61
  14        1          3          19  23  71
  15        1          3          20  26  43
  16        1          3          21  28  58
  17        1          3          22  29  83
  18        1          3          29  63  98
  19        1          2          35  57
  20        1          3          52  83 117
  21        1          3          33  62  66
  22        1          2          76  88
  23        1          3          39  76  84
  24        1          2          33  66
  25        1          2          60  97
  26        1          3          75  93  95
  27        1          2          43  55
  28        1          2          34  62
  29        1          3          32  70  78
  30        1          3          42  49  81
  31        1          3          36  43  52
  32        1          3          69  91 108
  33        1          3          78  99 103
  34        1          3          40  50  74
  35        1          3          38  77 111
  36        1          3          41 102 107
  37        1          3          39  67 107
  38        1          2          42  45
  39        1          2          79  85
  40        1          3          54  71  90
  41        1          2          59  63
  42        1          2          54  84
  43        1          3          48  62  67
  44        1          1         104
  45        1          2          48  95
  46        1          2          89  92
  47        1          3          52  53 104
  48        1          1          59
  49        1          3          60  73  83
  50        1          2          55  60
  51        1          2          56  69
  52        1          2          71  82
  53        1          3          58  65  66
  54        1          2          72 103
  55        1          3          69  94 112
  56        1          3          75  76  87
  57        1          2          64  87
  58        1          3          80  99 102
  59        1          3          64  74  86
  60        1          3          65  77  80
  61        1          3          67  97 112
  62        1          2          68 102
  63        1          1          65
  64        1          3          68  81  93
  65        1          1         113
  66        1          2          86  88
  67        1          1         104
  68        1          2          78 105
  69        1          1          75
  70        1          1          96
  71        1          2          73  77
  72        1          3          73  79 109
  73        1          1          85
  74        1          2          79 100
  75        1          2          97 113
  76        1          2          81  82
  77        1          1         120
  78        1          2          89  90
  79        1          3          88  89  92
  80        1          3          84  85 106
  81        1          3          90  91 112
  82        1          2          92  98
  83        1          2          86 113
  84        1          3          98 101 114
  85        1          2          87  95
  86        1          2          93  94
  87        1          2          91 110
  88        1          2          96 105
  89        1          1         106
  90        1          3          94 101 106
  91        1          1         101
  92        1          1         114
  93        1          1         116
  94        1          2          96 100
  95        1          1         119
  96        1          1         118
  97        1          3          99 100 115
  98        1          1         107
  99        1          1         111
 100        1          1         110
 101        1          1         115
 102        1          2         103 111
 103        1          2         105 108
 104        1          1         109
 105        1          1         118
 106        1          1         108
 107        1          2         109 110
 108        1          2         117 120
 109        1          1         115
 110        1          1         121
 111        1          2         116 117
 112        1          1         120
 113        1          1         119
 114        1          1         118
 115        1          1         116
 116        1          1         119
 117        1          1         121
 118        1          1         121
 119        1          1         122
 120        1          1         122
 121        1          1         122
 122        1          0        
************************************************************************
REQUESTS/DURATIONS:
jobnr. mode duration  R 1  R 2  R 3  R 4
------------------------------------------------------------------------
  1      1     0       0    0    0    0
  2      1     6       0    0    4    0
  3      1    10       9    0    0    0
  4      1     7       0   10    0    0
  5      1     3       9    0    0    0
  6      1     1       5    0    0    0
  7      1     6       0    2    0    0
  8      1     2       0    4    0    0
  9      1     9       0    0    0    2
 10      1     6       0    7    0    0
 11      1     5       0    0    5    0
 12      1     3       0    0    1    0
 13      1     4       0    0    0    4
 14      1     5       0    0    3    0
 15      1     4       0    2    0    0
 16      1     7       2    0    0    0
 17      1     7       0    0    0    3
 18      1     2       0    1    0    0
 19      1     9       8    0    0    0
 20      1     4      10    0    0    0
 21      1     8       0    0    0    2
 22      1     3      10    0    0    0
 23      1     3       0    0    9    0
 24      1     1       0    0    5    0
 25      1     6       0    1    0    0
 26      1     3       0    0    0    3
 27      1     1       0    0    2    0
 28      1     9       8    0    0    0
 29      1     7       0    0    2    0
 30      1     3       0    0    0    4
 31      1     5       1    0    0    0
 32      1    10       0    0    0   10
 33      1     3       7    0    0    0
 34      1     7       0    3    0    0
 35      1     8       6    0    0    0
 36      1     3       0    0    0    4
 37      1     1       0    4    0    0
 38      1     8       5    0    0    0
 39      1     9       0    5    0    0
 40      1    10       1    0    0    0
 41      1     4       0    8    0    0
 42      1     5       0    0    0    8
 43      1     2       8    0    0    0
 44      1     5       8    0    0    0
 45      1    10       0    6    0    0
 46      1    10       0    0    0   10
 47      1     2       0    0    0    4
 48      1     6       8    0    0    0
 49      1     5       0   10    0    0
 50      1     4       0    0    9    0
 51      1     5       0    8    0    0
 52      1     7       0    0    1    0
 53      1     6       0    0    0    6
 54      1     7       0    2    0    0
 55      1     8       0    0    3    0
 56      1     4       2    0    0    0
 57      1     9       7    0    0    0
 58      1     8       0    4    0    0
 59      1     7       0    4    0    0
 60      1     2       0    8    0    0
 61      1    10       0    0    0    6
 62      1     5       0    0    0    1
 63      1    10       0    2    0    0
 64      1    10       0    0    0    7
 65      1     7       0    6    0    0
 66      1     9       3    0    0    0
 67      1     6       0    0    0    9
 68      1     4       0    0    2    0
 69      1     1       0    0    0    1
 70      1     8       0    0    0    3
 71      1     3       0    0    0    2
 72      1     4       0    9    0    0
 73      1     6       0    8    0    0
 74      1    10       8    0    0    0
 75      1     2       7    0    0    0
 76      1     1       8    0    0    0
 77      1     9       0    0    0   10
 78      1     1       0   10    0    0
 79      1     6       0    4    0    0
 80      1     4      10    0    0    0
 81      1    10       0    0    4    0
 82      1     5       0    0    0    1
 83      1     8       2    0    0    0
 84      1     2       0    0    0    6
 85      1     7       5    0    0    0
 86      1     3       0    0    0    9
 87      1     7       0    5    0    0
 88      1     1       0    7    0    0
 89      1     2       0    8    0    0
 90      1     5       0    9    0    0
 91      1     6       0    8    0    0
 92      1    10       0    6    0    0
 93      1     4       0    0    9    0
 94      1     6       0    0    8    0
 95      1     4       0    9    0    0
 96      1     6       9    0    0    0
 97      1     1       0    0    0    8
 98      1     3       0    0    0    4
 99      1     6       0    0    3    0
100      1     8       0    0    0    9
101      1     9       0    0    1    0
102      1     5       6    0    0    0
103      1     3       0    5    0    0
104      1     5       0    0    8    0
105      1     9       2    0    0    0
106      1     4       0    0    7    0
107      1     1       0    0    4    0
108      1     9       0    4    0    0
109      1     7       0    0    8    0
110      1     3       8    0    0    0
111      1     1       0    7    0    0
112      1     3       0    0    7    0
113      1     5       0    0    9    0
114      1     7       7    0    0    0
115      1     9       0    7    0    0
116      1     2       0    0    5    0
117      1     8       0    0    4    0
118      1     2       2    0    0    0
119      1     9       8    0    0    0
120      1     2       0    0    0   10
121      1     4       0    0    6    0
122      1     0       0    0    0    0
************************************************************************
RESOURCEAVAILABILITIES:
  R 1  R 2  R 3  R 4
   18   15   11   16
************************************************************************
